
List of user-set options:

                                    Name   Value                used
                linear_scaling_on_demand = no                    yes
                           linear_solver = ma86                  yes
                   linear_system_scaling = mc19                  yes
                                max_iter = 92                    yes
                                 mu_init = 1e-06                 yes
                             output_file = ./tmp/ipopt_output_tmp.output  yes
                      print_user_options = yes                   yes
                   warm_start_bound_push = 1e-20                 yes
                   warm_start_init_point = yes                   yes
              warm_start_mult_bound_push = 1e-20                 yes

******************************************************************************
This program contains Ipopt, a library for large-scale nonlinear optimization.
 Ipopt is released as open source code under the Eclipse Public License (EPL).
         For more information visit http://projects.coin-or.org/Ipopt
******************************************************************************

This is Ipopt version 3.12.8, running with linear solver ma86.

Number of nonzeros in equality constraint Jacobian...:   103116
Number of nonzeros in inequality constraint Jacobian.:      300
Number of nonzeros in Lagrangian Hessian.............:   102838

Total number of variables............................:    29073
                     variables with only lower bounds:    11213
                variables with lower and upper bounds:    14333
                     variables with only upper bounds:        0
Total number of equality constraints.................:    29040
Total number of inequality constraints...............:        4
        inequality constraints with only lower bounds:        0
   inequality constraints with lower and upper bounds:        0
        inequality constraints with only upper bounds:        4

iter    objective    inf_pr   inf_du lg(mu)  ||d||  lg(rg) alpha_du alpha_pr  ls
   0 -1.0564239e-01 7.78e-07 5.32e+00  -6.0 0.00e+00    -  0.00e+00 0.00e+00   0
   1 -1.0564239e-01 7.78e-07 5.40e+00  -6.0 7.64e+03  -4.0 7.52e-04 1.20e-09f  2
   2 -1.0598566e-01 3.42e-03 9.09e+01  -6.0 1.30e+00  -4.5 1.55e-01 9.08e-01h  1
   3 -1.0611165e-01 5.78e-03 4.47e+01  -6.0 2.70e+00  -5.0 8.71e-01 4.79e-01h  1
   4 -1.0616730e-01 5.96e-03 4.35e+01  -6.0 3.79e+01  -5.4 1.86e-01 2.37e-02h  1
   5 -1.0722097e-01 2.87e+00 3.16e+01  -6.0 9.89e+01  -5.9 1.57e-01 2.69e-01f  1
   6 -1.0724865e-01 2.58e+00 2.84e+01  -6.0 1.27e+01  -5.5 7.57e-02 9.99e-02h  1
   7 -1.0847458e-01 2.78e+00 2.34e+01  -6.0 5.36e+01  -6.0 6.24e-02 1.80e-01h  1
   8 -1.0861837e-01 2.45e+00 2.07e+01  -6.0 1.36e+02  -6.4 1.56e-01 1.18e-01h  1
   9 -1.0885863e-01 1.90e+00 1.63e+01  -6.0 1.31e+01  -6.0 6.01e-01 2.23e-01h  1
iter    objective    inf_pr   inf_du lg(mu)  ||d||  lg(rg) alpha_du alpha_pr  ls
  10 -1.0900933e-01 3.07e-01 1.67e+00  -6.0 4.75e+00  -5.6 1.00e+00 1.00e+00h  1
  11 -1.0952874e-01 7.36e-01 1.14e+00  -6.0 1.18e+01  -6.1 1.00e+00 1.00e+00h  1
  12 -1.0967075e-01 1.30e-01 1.38e-01  -6.0 4.49e+00  -5.6 1.00e+00 1.00e+00h  1
  13 -1.1032995e-01 1.62e+00 1.33e+00  -6.0 2.06e+01  -6.1 1.00e+00 9.37e-01h  1
  14 -1.1054983e-01 1.39e+00 5.32e+00  -6.0 2.80e+01  -6.6 1.77e-03 3.32e-01h  1
  15 -1.1093793e-01 4.74e-02 5.55e-01  -6.0 3.78e+00  -5.3 1.00e+00 1.00e+00f  1
  16 -1.1104776e-01 4.80e-02 2.05e+01  -6.0 1.21e+01  -5.7 9.21e-01 1.42e-01h  1
  17 -1.1140489e-01 1.28e-01 1.16e+02  -6.0 3.79e+01  -6.2 1.00e+00 1.31e-01f  1
  18 -1.1162087e-01 3.00e-01 3.64e+01  -6.0 3.86e+01  -6.7 1.00e+00 1.26e-01h  1
  19 -1.1173473e-01 2.82e-01 2.27e+01  -6.0 3.31e+01  -7.2 5.62e-01 1.36e-01h  1
iter    objective    inf_pr   inf_du lg(mu)  ||d||  lg(rg) alpha_du alpha_pr  ls
  20 -1.1236750e-01 1.15e+00 5.53e+01  -6.0 9.19e+01  -7.6 2.37e-01 7.54e-01h  1
  21 -1.1257794e-01 4.04e-01 1.83e+00  -6.0 1.03e+01  -6.3 1.00e+00 1.00e+00h  1
  22 -1.1269905e-01 1.27e-01 1.98e-01  -6.0 5.88e+00  -5.9 1.00e+00 1.00e+00h  1
  23 -1.1281128e-01 2.31e-01 1.33e+01  -6.0 3.43e+01  -6.4 1.00e+00 1.72e-01h  1
  24 -1.1287197e-01 6.69e-02 3.92e-01  -6.0 1.70e+01  -6.8 1.00e+00 7.10e-01h  1
  25 -1.1315062e-01 3.61e-02 5.73e+00  -6.0 5.21e+01  -7.3 1.00e+00 1.00e+00f  1
  26 -1.1404641e-01 3.64e-01 3.04e+01  -6.0 1.75e+02  -7.8 6.41e-01 9.43e-01h  1
  27 -1.1506086e-01 1.23e+01 2.76e+01  -6.0 8.58e+03    -  6.72e-02 9.35e-02h  1
  28 -1.1520413e-01 1.09e+01 2.48e+01  -6.0 2.09e+02  -8.3 5.47e-01 1.07e-01h  1
  29 -1.1594562e-01 1.84e+00 1.01e+01  -6.0 2.59e+02  -8.8 3.25e-01 8.74e-01h  1
iter    objective    inf_pr   inf_du lg(mu)  ||d||  lg(rg) alpha_du alpha_pr  ls
  30 -1.1622930e-01 1.58e+00 1.90e+01  -6.0 6.08e+02  -9.2 1.00e-01 2.06e-01h  1
  31 -1.1703720e-01 1.12e+01 1.56e+01  -6.0 3.87e+03  -9.7 1.78e-01 1.81e-01h  1
  32 -1.1741721e-01 1.04e+01 1.56e+01  -6.0 3.52e+03    -  1.85e-02 9.61e-02h  1
  33 -1.1780374e-01 9.76e+00 1.35e+01  -6.0 1.32e+03  -9.3 6.27e-01 1.79e-01h  1
  34 -1.1923162e-01 3.45e+01 4.67e+01  -6.0 1.80e+05  -9.8 5.18e-03 5.99e-03h  1
  35 -1.1972405e-01 2.60e+01 3.52e+01  -6.0 3.60e+03    -  7.96e-02 2.47e-01h  1
  36 -1.2133673e-01 2.82e+01 5.05e+02  -6.0 1.77e+03  -9.3 6.92e-02 4.23e-01h  1
  37 -1.2140832e-01 2.77e+01 4.31e+02  -6.0 2.79e+04    -  3.08e-02 1.69e-02h  1
  38 -1.2144120e-01 2.62e+01 4.45e+02  -6.0 6.52e+03    -  6.32e-02 5.36e-02h  1
  39 -1.2153849e-01 2.42e+01 3.99e+02  -6.0 3.75e+03    -  2.43e-01 7.74e-02h  1
iter    objective    inf_pr   inf_du lg(mu)  ||d||  lg(rg) alpha_du alpha_pr  ls
  40 -1.2161351e-01 2.26e+01 3.73e+02  -6.0 8.14e+03    -  5.57e-02 6.35e-02h  1
  41 -1.2164300e-01 2.20e+01 3.63e+02  -6.0 7.22e+03    -  5.77e-03 2.71e-02h  1
  42 -1.2165350e-01 2.19e+01 3.61e+02  -6.0 8.72e+04    -  5.11e-05 4.98e-03f  1
  43 -1.2165455e-01 2.19e+01 3.61e+02  -6.0 3.32e+06    -  5.49e-09 1.72e-05f  3
  44 -1.2180634e-01 1.61e+01 2.62e+02  -6.0 7.70e+02  -9.8 3.95e-01 2.66e-01h  1
  45 -1.2193099e-01 1.39e+01 2.30e+02  -6.0 3.25e+03    -  5.28e-04 1.37e-01h  1
  46 -1.2200001e-01 1.25e+01 2.02e+02  -6.0 6.00e+03    -  2.08e-01 9.88e-02H  1
  47 -1.2222441e-01 1.25e+01 1.12e+02  -6.0 1.64e+03    -  4.01e-01 4.74e-01h  1
  48 -1.2240651e-01 1.62e+01 6.77e+01  -6.0 2.74e+03    -  4.76e-01 2.60e-01h  1
  49 -1.2280452e-01 7.00e+01 1.44e+03  -6.0 3.62e+03    -  2.74e-01 6.00e-01h  1
iter    objective    inf_pr   inf_du lg(mu)  ||d||  lg(rg) alpha_du alpha_pr  ls
  50 -1.2289245e-01 6.71e+01 1.64e+03  -6.0 5.88e+03    -  2.32e-02 7.72e-02h  1
  51 -1.2289157e-01 7.75e+01 2.99e+03  -6.0 5.98e+03    -  1.24e-01 2.52e-01h  1
  52 -1.2285548e-01 6.61e+01 7.95e+02  -6.0 2.01e+03    -  1.15e-03 1.65e-01h  1
  53 -1.2294918e-01 3.59e+01 3.54e+02  -6.0 2.38e+02  -7.6 2.77e-01 4.57e-01h  1
  54 -1.2298612e-01 4.91e-01 4.07e+03  -6.0 2.04e+02  -8.1 5.91e-03 1.00e+00h  1
  55 -1.2295899e-01 4.58e-02 7.76e+01  -6.0 6.12e+01  -8.5 9.69e-01 1.00e+00h  1
  56 -1.2295005e-01 1.49e-01 6.46e-01  -6.0 1.05e+02  -9.0 1.00e+00 1.00e+00h  1
  57 -1.2297587e-01 3.23e+00 4.44e+01  -6.0 1.26e+04    -  2.26e-01 4.09e-02h  1
  58 -1.2298791e-01 2.99e+00 3.66e+01  -6.0 2.17e+03    -  1.66e-01 7.50e-02h  1
  59 -1.2296889e-01 3.20e-01 4.05e+00  -6.0 1.43e+02  -9.5 8.93e-01 1.00e+00h  1
iter    objective    inf_pr   inf_du lg(mu)  ||d||  lg(rg) alpha_du alpha_pr  ls
  60 -1.2297008e-01 9.90e-01 1.97e+01  -6.0 5.51e+03    -  3.27e-01 3.80e-02h  1
  61 -1.2297489e-01 9.74e-01 4.03e+01  -6.0 1.61e+03    -  1.00e+00 1.01e-01h  1
  62 -1.2301379e-01 1.23e+00 2.28e+01  -6.0 4.56e+02    -  3.46e-01 5.34e-01h  1
  63 -1.2294627e-01 7.93e-01 3.96e+01  -6.0 4.40e+02    -  2.82e-01 3.93e-01h  1
  64 -1.2299130e-01 1.83e-01 1.58e+01  -6.0 1.24e+02    -  1.00e+00 1.00e+00h  1
  65 -1.2297957e-01 1.74e-01 1.45e+01  -6.0 2.66e+02  -9.1 1.00e+00 1.32e-01h  2
  66 -1.2295503e-01 1.61e-01 1.40e+01  -6.0 2.05e+02  -9.5 1.00e+00 2.50e-01h  3
  67 -1.2297661e-01 3.81e-02 3.49e+00  -6.0 5.66e+01    -  6.92e-01 1.00e+00h  1
  68 -1.2297587e-01 1.92e-04 2.89e-02  -6.0 3.17e+00    -  1.00e+00 1.00e+00h  1
  69 -1.2297668e-01 1.11e-04 4.23e-03  -6.0 2.38e+00    -  1.00e+00 1.00e+00h  1
iter    objective    inf_pr   inf_du lg(mu)  ||d||  lg(rg) alpha_du alpha_pr  ls
  70 -1.2297668e-01 9.19e-09 1.32e-08  -6.0 2.12e-02    -  1.00e+00 1.00e+00h  1
  71 -1.2314994e-01 1.65e+00 1.95e+01  -9.0 3.03e+02    -  4.45e-01 5.36e-01f  1
  72 -1.2325369e-01 1.61e+00 3.13e+01  -9.0 6.60e+02    -  3.69e-01 4.74e-01h  1
  73 -1.2330627e-01 3.11e+00 3.32e+01  -9.0 1.18e+03    -  2.69e-02 3.15e-01h  1
  74 -1.2330910e-01 3.07e+00 2.45e+01  -9.0 2.15e+03    -  2.57e-01 1.26e-02h  1
  75 -1.2332281e-01 2.92e+00 1.75e+01  -9.0 1.88e+03    -  2.82e-01 7.21e-02h  1
  76 -1.2339223e-01 8.56e+00 1.54e+01  -9.0 1.96e+03    -  2.46e-01 3.85e-01h  1
  77 -1.2340570e-01 8.52e+00 6.44e+03  -9.0 3.23e+03    -  1.66e-06 6.02e-02h  1
  78 -1.2344920e-01 1.30e+01 4.94e+03  -9.0 3.06e+03    -  3.67e-03 2.33e-01h  1
  79 -1.2344971e-01 1.29e+01 4.92e+03  -9.0 2.65e+03    -  4.84e-04 3.82e-03h  1
iter    objective    inf_pr   inf_du lg(mu)  ||d||  lg(rg) alpha_du alpha_pr  ls
  80 -1.2347233e-01 1.24e+01 3.69e+03  -9.0 1.82e+03    -  4.64e-03 2.50e-01h  1
  81 -1.2347374e-01 1.22e+01 3.64e+03  -9.0 1.67e+03    -  1.37e-01 1.36e-02h  1
  82 -1.2347501e-01 1.21e+01 3.59e+03  -9.0 1.81e+03    -  2.46e-01 1.30e-02h  1
  83 -1.2352660e-01 2.22e+01 2.30e+03  -9.0 2.91e+03    -  4.18e-02 3.59e-01h  1
  84 -1.2360927e-01 7.53e+01 8.75e+02  -9.0 3.55e+03    -  1.40e-01 6.20e-01h  1
  85 -1.2360954e-01 7.50e+01 8.71e+02  -9.0 1.92e+03    -  9.09e-05 4.38e-03h  1
  86 -1.2360955e-01 7.50e+01 8.71e+02  -9.0 4.17e+03    -  1.19e-02 1.63e-04h  1
  87 -1.2360955e-01 7.49e+01 8.70e+02  -9.0 2.00e+03    -  6.81e-04 6.51e-04h  1
  88 -1.2364961e-01 5.78e+01 1.28e+02  -9.0 2.00e+03    -  3.11e-02 8.53e-01f  1
  89 -1.2365091e-01 5.64e+01 1.25e+02  -9.0 1.50e+03    -  1.83e-03 2.54e-02h  1
iter    objective    inf_pr   inf_du lg(mu)  ||d||  lg(rg) alpha_du alpha_pr  ls
  90 -1.2365030e-01 5.30e+01 1.17e+02  -9.0 1.75e+02    -  5.36e-02 5.99e-02h  1
  91 -1.2364036e-01 2.63e-01 6.24e+00  -9.0 1.80e+02    -  6.97e-02 1.00e+00h  1
  92 -1.2364034e-01 2.10e-01 4.56e-01  -9.0 1.23e+00    -  1.00e+00 2.00e-01h  1

Number of Iterations....: 92

                                   (scaled)                 (unscaled)
Objective...............:  -1.2364033667250002e-01   -1.2364033667250002e-01
Dual infeasibility......:   4.5600638560421919e-01    4.5600638560421919e-01
Constraint violation....:   1.1273276823308870e-01    2.1031356470484752e-01
Complementarity.........:   1.9923315240615040e-09    1.9923315240615040e-09
Overall NLP error.......:   4.5600638560421919e-01    4.5600638560421919e-01


Number of objective function evaluations             = 104
Number of objective gradient evaluations             = 93
Number of equality constraint evaluations            = 104
Number of inequality constraint evaluations          = 104
Number of equality constraint Jacobian evaluations   = 93
Number of inequality constraint Jacobian evaluations = 93
Number of Lagrangian Hessian evaluations             = 92
Total CPU secs in IPOPT (w/o function evaluations)   =    297.891
Total CPU secs in NLP function evaluations           =      5.691

EXIT: Maximum Number of Iterations Exceeded.
